4	143	143	0	0	0
5	144	103	0	0	0
6	236	184	0	0	0
7	279	240	0	15	15
8	267	244	0	16	16
9	261	225	0	31	31
10	385	252	0	15	15
11	438	306	0	187	187
12	377	312	0	15	15
13	541	338	0	31	31
14	551	400	16	15	31
15	675	390	0	47	47
16	560	367	0	31	31
17	656	439	0	94	94
18	634	443	0	203	203
19	875	507	0	78	78
